p cnf 21 8
e 1 0
a 2 3 0
e 4 0
a 5 6 7 8 0
e 9 10 0
a 11 0
e 12 0
a 13 0
e 14 15 0
a 16 0
e 17 0
a 18 0
e 19 20 21 0
-19 11 0
12 18 0
4 2 6 3 1 0
7 -1 3 10 -5 0
8 6 13 1 9 0
-10 -6 14 12 5 0
-1 -18 15 0
10 21 -4 -12 0
